VER
1

OBJSENSE
MIN

VAR
5 1
F 5

INT
2
0
1

CON
11 1
L+ 11

PSDCON
2
2
2

OBJACOORD
4
0 1.000000
1 1.000000
2 1.000000
4 1.000000

ACOORD
13
0 0 -1.000000
0 1 -1.000000
0 3 2.000000
1 0 1.0
2 1 1.0
3 2 1.0
4 3 1.0
5 4 1.0
6 0 -1.0
7 1 -1.0
8 2 -1.0
9 3 -1.0
10 4 -1.0

BCOORD
10
1 10.0
2 10.0
3 10.0
4 10.0
5 10.0
6 10.0
7 10.0
8 10.0
9 10.0
10 10.0


HCOORD
7
0 0 1 0 1.000000
0 0 1 1 3.000000
0 1 0 0 3.000000
0 1 1 0 1.000000
1 2 0 0 1.000000
1 3 1 0 1.000000
1 4 1 1 1.000000

DCOORD
2
0 0 0 -1.000000
0 1 1 -1.000000
